result&benchmarks/Data/Ex1/verify/Output/dll-simple-white-blue-1_process_dc_iter2Output/Counterexample.3.smt2
(set-info :source |printed by MathSAT|)
(declare-fun malloc@2 () (_ BitVec 32))
(declare-fun |__ADDRESS_OF_#__VERIFIER_successful_alloc_*void#1@| () (_ BitVec 32))
(declare-fun |main::x@3| () (_ BitVec 32))
(declare-fun |*(struct_TSLL)*@1| () (Array (_ BitVec 32) (_ BitVec 32)))
(declare-fun |*(struct_TSLL)*@2| () (Array (_ BitVec 32) (_ BitVec 32)))
(declare-fun *int@1 () (Array (_ BitVec 32) (_ BitVec 32)))
(declare-fun *int@2 () (Array (_ BitVec 32) (_ BitVec 32)))
(declare-fun |main::current@2| () (_ BitVec 32))
(declare-fun |main::expr_tmp_var_29_int@2| () (_ BitVec 32))
(declare-fun |main::current@3| () (_ BitVec 32))
(declare-fun |main::local_28@2| () (_ BitVec 32))
(declare-fun malloc@3 () (_ BitVec 32))
(declare-fun |__ADDRESS_OF_#__VERIFIER_successful_alloc_*void#2@| () (_ BitVec 32))
(declare-fun |main::pSVar1@3| () (_ BitVec 32))
(declare-fun *int@3 () (Array (_ BitVec 32) (_ BitVec 32)))
(declare-fun |*(struct_TSLL)*@3| () (Array (_ BitVec 32) (_ BitVec 32)))
(declare-fun |main::x@4| () (_ BitVec 32))
(declare-fun |main::current@4| () (_ BitVec 32))
(declare-fun |main::current@5| () (_ BitVec 32))
(assert (let ((.def_211 (bvadd (_ bv8 32) |main::current@5|)))(let ((.def_212 (select *int@3 .def_211)))(let ((.def_213 (= .def_212 (_ bv1 32))))(let ((.def_214 (not .def_213)))(let ((.def_173 (= |main::current@5| (_ bv0 32))))(let ((.def_174 (not .def_173)))(let ((.def_168 (select |*(struct_TSLL)*@3| |main::current@4|)))(let ((.def_170 (= .def_168 |main::current@5|)))(let ((.def_153 (bvadd (_ bv8 32) |main::current@4|)))(let ((.def_154 (select *int@3 .def_153)))(let ((.def_155 (= .def_154 (_ bv1 32))))(let ((.def_148 (= |main::x@4| |main::current@4|)))(let ((.def_107 (= |main::pSVar1@3| |main::x@4|)))(let ((.def_102 (store |*(struct_TSLL)*@2| |main::pSVar1@3| |main::x@3|)))(let ((.def_103 (= |*(struct_TSLL)*@3| .def_102)))(let ((.def_93 (bvadd (_ bv8 32) |main::pSVar1@3|)))(let ((.def_95 (store *int@2 .def_93 (_ bv1 32))))(let ((.def_96 (= *int@3 .def_95)))(let ((.def_20 (bvadd (_ bv4 32) |__ADDRESS_OF_#__VERIFIER_successful_alloc_*void#1@|)))(let ((.def_72 (bvslt .def_20 |__ADDRESS_OF_#__VERIFIER_successful_alloc_*void#2@|)))(let ((.def_23 (bvadd (_ bv12 32) |__ADDRESS_OF_#__VERIFIER_successful_alloc_*void#1@|)))(let ((.def_71 (bvslt .def_23 |__ADDRESS_OF_#__VERIFIER_successful_alloc_*void#2@|)))(let ((.def_85 (and .def_71 .def_72)))(let ((.def_73 (bvurem |__ADDRESS_OF_#__VERIFIER_successful_alloc_*void#2@| (_ bv8 32))))(let ((.def_74 (= .def_73 (_ bv0 32))))(let ((.def_86 (and .def_74 .def_85)))(let ((.def_76 (bvadd (_ bv4 32) |__ADDRESS_OF_#__VERIFIER_successful_alloc_*void#2@|)))(let ((.def_77 (bvslt (_ bv0 32) .def_76)))(let ((.def_87 (and .def_77 .def_86)))(let ((.def_79 (bvadd (_ bv12 32) |__ADDRESS_OF_#__VERIFIER_successful_alloc_*void#2@|)))(let ((.def_80 (bvslt (_ bv0 32) .def_79)))(let ((.def_88 (and .def_80 .def_87)))(let ((.def_81 (bvslt (_ bv0 32) |__ADDRESS_OF_#__VERIFIER_successful_alloc_*void#2@|)))(let ((.def_89 (and .def_81 .def_88)))(let ((.def_68 (= malloc@3 (_ bv0 32))))(let ((.def_69 (not .def_68)))(let ((.def_82 (ite .def_69 |__ADDRESS_OF_#__VERIFIER_successful_alloc_*void#2@| (_ bv0 32))))(let ((.def_84 (= .def_82 |main::pSVar1@3|)))(let ((.def_90 (and .def_84 .def_89)))(let ((.def_62 (= |main::local_28@2| (_ bv0 32))))(let ((.def_65 (not .def_62)))(let ((.def_59 (= |main::x@3| |main::current@3|)))(let ((.def_52 (= |main::expr_tmp_var_29_int@2| (_ bv0 32))))(let ((.def_49 (= |main::x@3| |main::current@2|)))(let ((.def_41 (bvadd (_ bv8 32) |main::x@3|)))(let ((.def_44 (store *int@1 .def_41 (_ bv0 32))))(let ((.def_45 (= *int@2 .def_44)))(let ((.def_36 (store |*(struct_TSLL)*@1| |main::x@3| (_ bv0 32))))(let ((.def_37 (= |*(struct_TSLL)*@2| .def_36)))(let ((.def_17 (bvurem |__ADDRESS_OF_#__VERIFIER_successful_alloc_*void#1@| (_ bv8 32))))(let ((.def_18 (= .def_17 (_ bv0 32))))(let ((.def_15 (bvslt (_ bv0 32) |__ADDRESS_OF_#__VERIFIER_successful_alloc_*void#1@|)))(let ((.def_28 (and .def_15 .def_18)))(let ((.def_21 (bvslt (_ bv0 32) .def_20)))(let ((.def_29 (and .def_21 .def_28)))(let ((.def_24 (bvslt (_ bv0 32) .def_23)))(let ((.def_30 (and .def_24 .def_29)))(let ((.def_11 (= malloc@2 (_ bv0 32))))(let ((.def_12 (not .def_11)))(let ((.def_25 (ite .def_12 |__ADDRESS_OF_#__VERIFIER_successful_alloc_*void#1@| (_ bv0 32))))(let ((.def_27 (= .def_25 |main::x@3|)))(let ((.def_31 (and .def_27 .def_30)))(let ((.def_39 (and .def_31 .def_37)))(let ((.def_47 (and .def_39 .def_45)))(let ((.def_50 (and .def_47 .def_49)))(let ((.def_57 (and .def_50 .def_52)))(let ((.def_60 (and .def_57 .def_59)))(let ((.def_66 (and .def_60 .def_65)))(let ((.def_91 (and .def_66 .def_90)))(let ((.def_98 (and .def_91 .def_96)))(let ((.def_105 (and .def_98 .def_103)))(let ((.def_108 (and .def_105 .def_107)))(let ((.def_149 (and .def_108 .def_148)))(let ((.def_159 (and .def_149 .def_155)))(let ((.def_171 (and .def_159 .def_170)))(let ((.def_176 (and .def_171 .def_174)))(let ((.def_216 (and .def_176 .def_214))).def_216))))))))))))))))))))))))))))))))))))))))))))))))))))))))))))))))))))))))))))))