result&benchmarks/Data/Ex1/verify/Output/dll-simple-white-blue-1_process_dc_iter2Output/Counterexample.3.txt
none:	N37 -{INIT GLOBAL VARS}-> N115
/usr/lib/gcc/x86_64-linux-gnu/11/include/stddef.h, line 209:	N115 -{typedef unsigned long int size_t;}-> N116
/usr/lib/gcc/x86_64-linux-gnu/11/include/stddef.h, line 321:	N116 -{typedef int wchar_t;}-> N117
/usr/include/stdlib.h, lines 59-63:	N117 -{struct __anon_type_div_t {   int quot;   int rem; } ;}-> N118
/usr/include/stdlib.h, lines 59-63:	N118 -{typedef struct __anon_type_div_t div_t;}-> N119
/usr/include/stdlib.h, lines 67-71:	N119 -{struct __anon_type_ldiv_t {   long int quot;   long int rem; } ;}-> N120
/usr/include/stdlib.h, lines 67-71:	N120 -{typedef struct __anon_type_ldiv_t ldiv_t;}-> N121
/usr/include/stdlib.h, lines 77-81:	N121 -{struct __anon_type_lldiv_t {   long long int quot;   long long int rem; } ;}-> N122
/usr/include/stdlib.h, lines 77-81:	N122 -{typedef struct __anon_type_lldiv_t lldiv_t;}-> N123
/usr/include/stdlib.h, line 98:	N123 -{size_t __ctype_get_mb_cur_max();}-> N124
/usr/include/stdlib.h, lines 102-103:	N124 -{double atof(const char *__nptr);}-> N125
/usr/include/stdlib.h, lines 105-106:	N125 -{int atoi(const char *__nptr);}-> N126
/usr/include/stdlib.h, lines 108-109:	N126 -{long int atol(const char *__nptr);}-> N127
/usr/include/stdlib.h, lines 113-114:	N127 -{long long int atoll(const char *__nptr);}-> N128
/usr/include/stdlib.h, lines 118-120:	N128 -{double strtod(const char *__nptr, char **__endptr);}-> N129
/usr/include/stdlib.h, lines 124-125:	N129 -{float strtof(const char *__nptr, char **__endptr);}-> N130
/usr/include/stdlib.h, lines 127-129:	N130 -{long double strtold(const char *__nptr, char **__endptr);}-> N131
/usr/include/stdlib.h, lines 177-179:	N131 -{long int strtol(const char *__nptr, char **__endptr, int __base);}-> N132
/usr/include/stdlib.h, lines 181-183:	N132 -{unsigned long int strtoul(const char *__nptr, char **__endptr, int __base);}-> N133
/usr/include/stdlib.h, lines 188-190:	N133 -{long long int strtoq(const char *__nptr, char **__endptr, int __base);}-> N134
/usr/include/stdlib.h, lines 193-195:	N134 -{unsigned long long int strtouq(const char *__nptr, char **__endptr, int __base);}-> N135
/usr/include/stdlib.h, lines 201-203:	N135 -{long long int strtoll(const char *__nptr, char **__endptr, int __base);}-> N136
/usr/include/stdlib.h, lines 206-208:	N136 -{unsigned long long int strtoull(const char *__nptr, char **__endptr, int __base);}-> N137
/usr/include/stdlib.h, line 386:	N137 -{char *l64a(long int __n);}-> N138
/usr/include/stdlib.h, lines 389-390:	N138 -{long int a64l(const char *__s);}-> N139
/usr/include/x86_64-linux-gnu/bits/types.h, line 31:	N139 -{typedef unsigned char __u_char;}-> N140
/usr/include/x86_64-linux-gnu/bits/types.h, line 32:	N140 -{typedef unsigned short int __u_short;}-> N141
/usr/include/x86_64-linux-gnu/bits/types.h, line 33:	N141 -{typedef unsigned int __u_int;}-> N142
/usr/include/x86_64-linux-gnu/bits/types.h, line 34:	N142 -{typedef unsigned long int __u_long;}-> N143
/usr/include/x86_64-linux-gnu/bits/types.h, line 37:	N143 -{typedef signed char __int8_t;}-> N144
/usr/include/x86_64-linux-gnu/bits/types.h, line 38:	N144 -{typedef unsigned char __uint8_t;}-> N145
/usr/include/x86_64-linux-gnu/bits/types.h, line 39:	N145 -{typedef signed short int __int16_t;}-> N146
/usr/include/x86_64-linux-gnu/bits/types.h, line 40:	N146 -{typedef unsigned short int __uint16_t;}-> N147
/usr/include/x86_64-linux-gnu/bits/types.h, line 41:	N147 -{typedef signed int __int32_t;}-> N148
/usr/include/x86_64-linux-gnu/bits/types.h, line 42:	N148 -{typedef unsigned int __uint32_t;}-> N149
/usr/include/x86_64-linux-gnu/bits/types.h, line 44:	N149 -{typedef signed long int __int64_t;}-> N150
/usr/include/x86_64-linux-gnu/bits/types.h, line 45:	N150 -{typedef unsigned long int __uint64_t;}-> N151
/usr/include/x86_64-linux-gnu/bits/types.h, line 52:	N151 -{typedef __int8_t __int_least8_t;}-> N152
/usr/include/x86_64-linux-gnu/bits/types.h, line 53:	N152 -{typedef __uint8_t __uint_least8_t;}-> N153
/usr/include/x86_64-linux-gnu/bits/types.h, line 54:	N153 -{typedef __int16_t __int_least16_t;}-> N154
/usr/include/x86_64-linux-gnu/bits/types.h, line 55:	N154 -{typedef __uint16_t __uint_least16_t;}-> N155
/usr/include/x86_64-linux-gnu/bits/types.h, line 56:	N155 -{typedef __int32_t __int_least32_t;}-> N156
/usr/include/x86_64-linux-gnu/bits/types.h, line 57:	N156 -{typedef __uint32_t __uint_least32_t;}-> N157
/usr/include/x86_64-linux-gnu/bits/types.h, line 58:	N157 -{typedef __int64_t __int_least64_t;}-> N158
/usr/include/x86_64-linux-gnu/bits/types.h, line 59:	N158 -{typedef __uint64_t __uint_least64_t;}-> N159
/usr/include/x86_64-linux-gnu/bits/types.h, line 63:	N159 -{typedef long int __quad_t;}-> N160
/usr/include/x86_64-linux-gnu/bits/types.h, line 64:	N160 -{typedef unsigned long int __u_quad_t;}-> N161
/usr/include/x86_64-linux-gnu/bits/types.h, line 72:	N161 -{typedef long int __intmax_t;}-> N162
/usr/include/x86_64-linux-gnu/bits/types.h, line 73:	N162 -{typedef unsigned long int __uintmax_t;}-> N163
/usr/include/x86_64-linux-gnu/bits/types.h, line 145:	N163 -{typedef unsigned long int __dev_t;}-> N164
/usr/include/x86_64-linux-gnu/bits/types.h, line 146:	N164 -{typedef unsigned int __uid_t;}-> N165
/usr/include/x86_64-linux-gnu/bits/types.h, line 147:	N165 -{typedef unsigned int __gid_t;}-> N166
/usr/include/x86_64-linux-gnu/bits/types.h, line 148:	N166 -{typedef unsigned long int __ino_t;}-> N167
/usr/include/x86_64-linux-gnu/bits/types.h, line 149:	N167 -{typedef unsigned long int __ino64_t;}-> N168
/usr/include/x86_64-linux-gnu/bits/types.h, line 150:	N168 -{typedef unsigned int __mode_t;}-> N169
/usr/include/x86_64-linux-gnu/bits/types.h, line 151:	N169 -{typedef unsigned long int __nlink_t;}-> N170
/usr/include/x86_64-linux-gnu/bits/types.h, line 152:	N170 -{typedef long int __off_t;}-> N171
/usr/include/x86_64-linux-gnu/bits/types.h, line 153:	N171 -{typedef long int __off64_t;}-> N172
/usr/include/x86_64-linux-gnu/bits/types.h, line 154:	N172 -{typedef int __pid_t;}-> N173
/usr/include/x86_64-linux-gnu/bits/types.h, line 155:	N173 -{struct __anon_type___fsid_t {   int __val[2]; } ;}-> N174
/usr/include/x86_64-linux-gnu/bits/types.h, line 155:	N174 -{typedef struct __anon_type___fsid_t __fsid_t;}-> N175
/usr/include/x86_64-linux-gnu/bits/types.h, line 156:	N175 -{typedef long int __clock_t;}-> N176
/usr/include/x86_64-linux-gnu/bits/types.h, line 157:	N176 -{typedef unsigned long int __rlim_t;}-> N177
/usr/include/x86_64-linux-gnu/bits/types.h, line 158:	N177 -{typedef unsigned long int __rlim64_t;}-> N178
/usr/include/x86_64-linux-gnu/bits/types.h, line 159:	N178 -{typedef unsigned int __id_t;}-> N179
/usr/include/x86_64-linux-gnu/bits/types.h, line 160:	N179 -{typedef long int __time_t;}-> N180
/usr/include/x86_64-linux-gnu/bits/types.h, line 161:	N180 -{typedef unsigned int __useconds_t;}-> N181
/usr/include/x86_64-linux-gnu/bits/types.h, line 162:	N181 -{typedef long int __suseconds_t;}-> N182
/usr/include/x86_64-linux-gnu/bits/types.h, line 163:	N182 -{typedef long int __suseconds64_t;}-> N183
/usr/include/x86_64-linux-gnu/bits/types.h, line 165:	N183 -{typedef int __daddr_t;}-> N184
/usr/include/x86_64-linux-gnu/bits/types.h, line 166:	N184 -{typedef int __key_t;}-> N185
/usr/include/x86_64-linux-gnu/bits/types.h, line 169:	N185 -{typedef int __clockid_t;}-> N186
/usr/include/x86_64-linux-gnu/bits/types.h, line 172:	N186 -{typedef void *__timer_t;}-> N187
/usr/include/x86_64-linux-gnu/bits/types.h, line 175:	N187 -{typedef long int __blksize_t;}-> N188
/usr/include/x86_64-linux-gnu/bits/types.h, line 180:	N188 -{typedef long int __blkcnt_t;}-> N189
/usr/include/x86_64-linux-gnu/bits/types.h, line 181:	N189 -{typedef long int __blkcnt64_t;}-> N190
/usr/include/x86_64-linux-gnu/bits/types.h, line 184:	N190 -{typedef unsigned long int __fsblkcnt_t;}-> N191
/usr/include/x86_64-linux-gnu/bits/types.h, line 185:	N191 -{typedef unsigned long int __fsblkcnt64_t;}-> N192
/usr/include/x86_64-linux-gnu/bits/types.h, line 188:	N192 -{typedef unsigned long int __fsfilcnt_t;}-> N193
/usr/include/x86_64-linux-gnu/bits/types.h, line 189:	N193 -{typedef unsigned long int __fsfilcnt64_t;}-> N194
/usr/include/x86_64-linux-gnu/bits/types.h, line 192:	N194 -{typedef long int __fsword_t;}-> N195
/usr/include/x86_64-linux-gnu/bits/types.h, line 194:	N195 -{typedef long int __ssize_t;}-> N196
/usr/include/x86_64-linux-gnu/bits/types.h, line 197:	N196 -{typedef long int __syscall_slong_t;}-> N197
/usr/include/x86_64-linux-gnu/bits/types.h, line 199:	N197 -{typedef unsigned long int __syscall_ulong_t;}-> N198
/usr/include/x86_64-linux-gnu/bits/types.h, line 203:	N198 -{typedef __off64_t __loff_t;}-> N199
/usr/include/x86_64-linux-gnu/bits/types.h, line 204:	N199 -{typedef char *__caddr_t;}-> N200
/usr/include/x86_64-linux-gnu/bits/types.h, line 207:	N200 -{typedef long int __intptr_t;}-> N201
/usr/include/x86_64-linux-gnu/bits/types.h, line 210:	N201 -{typedef unsigned int __socklen_t;}-> N202
/usr/include/x86_64-linux-gnu/bits/types.h, line 215:	N202 -{typedef int __sig_atomic_t;}-> N203
/usr/include/x86_64-linux-gnu/sys/types.h, line 33:	N203 -{typedef __u_char u_char;}-> N204
/usr/include/x86_64-linux-gnu/sys/types.h, line 34:	N204 -{typedef __u_short u_short;}-> N205
/usr/include/x86_64-linux-gnu/sys/types.h, line 35:	N205 -{typedef __u_int u_int;}-> N206
/usr/include/x86_64-linux-gnu/sys/types.h, line 36:	N206 -{typedef __u_long u_long;}-> N207
/usr/include/x86_64-linux-gnu/sys/types.h, line 37:	N207 -{typedef __quad_t quad_t;}-> N208
/usr/include/x86_64-linux-gnu/sys/types.h, line 38:	N208 -{typedef __u_quad_t u_quad_t;}-> N209
/usr/include/x86_64-linux-gnu/sys/types.h, line 39:	N209 -{typedef __fsid_t fsid_t;}-> N210
/usr/include/x86_64-linux-gnu/sys/types.h, line 42:	N210 -{typedef __loff_t loff_t;}-> N211
/usr/include/x86_64-linux-gnu/sys/types.h, line 47:	N211 -{typedef __ino_t ino_t;}-> N212
/usr/include/x86_64-linux-gnu/sys/types.h, line 59:	N212 -{typedef __dev_t dev_t;}-> N213
/usr/include/x86_64-linux-gnu/sys/types.h, line 64:	N213 -{typedef __gid_t gid_t;}-> N214
/usr/include/x86_64-linux-gnu/sys/types.h, line 69:	N214 -{typedef __mode_t mode_t;}-> N215
/usr/include/x86_64-linux-gnu/sys/types.h, line 74:	N215 -{typedef __nlink_t nlink_t;}-> N216
/usr/include/x86_64-linux-gnu/sys/types.h, line 79:	N216 -{typedef __uid_t uid_t;}-> N217
/usr/include/x86_64-linux-gnu/sys/types.h, line 85:	N217 -{typedef __off_t off_t;}-> N218
/usr/include/x86_64-linux-gnu/sys/types.h, line 97:	N218 -{typedef __pid_t pid_t;}-> N219
/usr/include/x86_64-linux-gnu/sys/types.h, line 103:	N219 -{typedef __id_t id_t;}-> N220
/usr/include/x86_64-linux-gnu/sys/types.h, line 108:	N220 -{typedef __ssize_t ssize_t;}-> N221
/usr/include/x86_64-linux-gnu/sys/types.h, line 114:	N221 -{typedef __daddr_t daddr_t;}-> N222
/usr/include/x86_64-linux-gnu/sys/types.h, line 115:	N222 -{typedef __caddr_t caddr_t;}-> N223
/usr/include/x86_64-linux-gnu/sys/types.h, line 121:	N223 -{typedef __key_t key_t;}-> N224
/usr/include/x86_64-linux-gnu/bits/types/clock_t.h, line 7:	N224 -{typedef __clock_t clock_t;}-> N225
/usr/include/x86_64-linux-gnu/bits/types/clockid_t.h, line 7:	N225 -{typedef __clockid_t clockid_t;}-> N226
/usr/include/x86_64-linux-gnu/bits/types/time_t.h, line 10:	N226 -{typedef __time_t time_t;}-> N227
/usr/include/x86_64-linux-gnu/bits/types/timer_t.h, line 7:	N227 -{typedef __timer_t timer_t;}-> N228
/usr/include/x86_64-linux-gnu/sys/types.h, line 148:	N228 -{typedef unsigned long int ulong;}-> N229
/usr/include/x86_64-linux-gnu/sys/types.h, line 149:	N229 -{typedef unsigned short int ushort;}-> N230
/usr/include/x86_64-linux-gnu/sys/types.h, line 150:	N230 -{typedef unsigned int uint;}-> N231
/usr/include/x86_64-linux-gnu/bits/stdint-intn.h, line 24:	N231 -{typedef __int8_t int8_t;}-> N232
/usr/include/x86_64-linux-gnu/bits/stdint-intn.h, line 25:	N232 -{typedef __int16_t int16_t;}-> N233
/usr/include/x86_64-linux-gnu/bits/stdint-intn.h, line 26:	N233 -{typedef __int32_t int32_t;}-> N234
/usr/include/x86_64-linux-gnu/bits/stdint-intn.h, line 27:	N234 -{typedef __int64_t int64_t;}-> N235
/usr/include/x86_64-linux-gnu/sys/types.h, line 158:	N235 -{typedef __uint8_t u_int8_t;}-> N236
/usr/include/x86_64-linux-gnu/sys/types.h, line 159:	N236 -{typedef __uint16_t u_int16_t;}-> N237
/usr/include/x86_64-linux-gnu/sys/types.h, line 160:	N237 -{typedef __uint32_t u_int32_t;}-> N238
/usr/include/x86_64-linux-gnu/sys/types.h, line 161:	N238 -{typedef __uint64_t u_int64_t;}-> N239
/usr/include/x86_64-linux-gnu/sys/types.h, line 164:	N239 -{typedef signed int register_t;}-> N240
/usr/include/x86_64-linux-gnu/bits/byteswap.h, lines 33-41:	N240 -{__uint16_t __bswap_16(__uint16_t __bsx);}-> N241
/usr/include/x86_64-linux-gnu/bits/byteswap.h, lines 48-56:	N241 -{__uint32_t __bswap_32(__uint32_t __bsx);}-> N242
/usr/include/x86_64-linux-gnu/bits/byteswap.h, lines 69-77:	N242 -{__uint64_t __bswap_64(__uint64_t __bsx);}-> N243
/usr/include/x86_64-linux-gnu/bits/uintn-identity.h, lines 32-36:	N243 -{__uint16_t __uint16_identity(__uint16_t __x);}-> N244
/usr/include/x86_64-linux-gnu/bits/uintn-identity.h, lines 38-42:	N244 -{__uint32_t __uint32_identity(__uint32_t __x);}-> N245
/usr/include/x86_64-linux-gnu/bits/uintn-identity.h, lines 44-48:	N245 -{__uint64_t __uint64_identity(__uint64_t __x);}-> N246
/usr/include/x86_64-linux-gnu/bits/types/__sigset_t.h, lines 5-8:	N246 -{struct __anon_type___sigset_t {   unsigned long int __val[32UL]; } ;}-> N247
/usr/include/x86_64-linux-gnu/bits/types/__sigset_t.h, lines 5-8:	N247 -{typedef struct __anon_type___sigset_t __sigset_t;}-> N248
/usr/include/x86_64-linux-gnu/bits/types/sigset_t.h, line 7:	N248 -{typedef __sigset_t sigset_t;}-> N249
/usr/include/x86_64-linux-gnu/bits/types/struct_timeval.h, lines 8-17:	N249 -{struct timeval {   __time_t tv_sec;   __suseconds_t tv_usec; } ;}-> N250
/usr/include/x86_64-linux-gnu/bits/types/struct_timespec.h, lines 11-31:	N250 -{struct timespec {   __time_t tv_sec;   __syscall_slong_t tv_nsec; } ;}-> N251
/usr/include/x86_64-linux-gnu/sys/select.h, line 43:	N251 -{typedef __suseconds_t suseconds_t;}-> N252
/usr/include/x86_64-linux-gnu/sys/select.h, line 49:	N252 -{typedef long int __fd_mask;}-> N253
/usr/include/x86_64-linux-gnu/sys/select.h, lines 59-70:	N253 -{struct __anon_type_fd_set {   __fd_mask __fds_bits[32]; } ;}-> N254
/usr/include/x86_64-linux-gnu/sys/select.h, lines 59-70:	N254 -{typedef struct __anon_type_fd_set fd_set;}-> N255
/usr/include/x86_64-linux-gnu/sys/select.h, line 77:	N255 -{typedef __fd_mask fd_mask;}-> N256
/usr/include/x86_64-linux-gnu/sys/select.h, lines 102-105:	N256 -{int select(int __nfds, fd_set *__readfds, fd_set *__writefds, fd_set *__exceptfds, struct timeval *__timeout);}-> N257
/usr/include/x86_64-linux-gnu/sys/select.h, lines 127-131:	N257 -{int pselect(int __nfds, fd_set *__readfds, fd_set *__writefds, fd_set *__exceptfds, const struct timespec *__timeout, const __sigset_t *__sigmask);}-> N258
/usr/include/x86_64-linux-gnu/sys/types.h, line 185:	N258 -{typedef __blksize_t blksize_t;}-> N259
/usr/include/x86_64-linux-gnu/sys/types.h, line 192:	N259 -{typedef __blkcnt_t blkcnt_t;}-> N260
/usr/include/x86_64-linux-gnu/sys/types.h, line 196:	N260 -{typedef __fsblkcnt_t fsblkcnt_t;}-> N261
/usr/include/x86_64-linux-gnu/sys/types.h, line 200:	N261 -{typedef __fsfilcnt_t fsfilcnt_t;}-> N262
/usr/include/x86_64-linux-gnu/bits/atomic_wide_counter.h, lines 28-32:	N262 -{struct __anon_type_0 {   unsigned int __low;   unsigned int __high; } ;}-> N263
/usr/include/x86_64-linux-gnu/bits/atomic_wide_counter.h, lines 25-33:	N263 -{union __anon_type___atomic_wide_counter {   unsigned long long int __value64;   struct __anon_type_0 __value32; } ;}-> N264
/usr/include/x86_64-linux-gnu/bits/atomic_wide_counter.h, lines 25-33:	N264 -{typedef union __anon_type___atomic_wide_counter __atomic_wide_counter;}-> N265
/usr/include/x86_64-linux-gnu/bits/thread-shared-types.h, lines 51-55:	N265 -{struct __pthread_internal_list {   struct __pthread_internal_list *__prev;   struct __pthread_internal_list *__next; } ;}-> N266
/usr/include/x86_64-linux-gnu/bits/thread-shared-types.h, lines 51-55:	N266 -{typedef struct __pthread_internal_list __pthread_list_t;}-> N267
/usr/include/x86_64-linux-gnu/bits/thread-shared-types.h, lines 57-60:	N267 -{struct __pthread_internal_slist {   struct __pthread_internal_slist *__next; } ;}-> N268
/usr/include/x86_64-linux-gnu/bits/thread-shared-types.h, lines 57-60:	N268 -{typedef struct __pthread_internal_slist __pthread_slist_t;}-> N269
/usr/include/x86_64-linux-gnu/bits/struct_mutex.h, lines 22-53:	N269 -{struct __pthread_mutex_s {   int __lock;   unsigned int __count;   int __owner;   unsigned int __nusers;   int __kind;   short __spins;   short __elision;   __pthread_list_t __list; } ;}-> N270
/usr/include/x86_64-linux-gnu/bits/struct_rwlock.h, lines 23-55:	N270 -{struct __pthread_rwlock_arch_t {   unsigned int __readers;   unsigned int __writers;   unsigned int __wrphase_futex;   unsigned int __writers_futex;   unsigned int __pad3;   unsigned int __pad4;   int __cur_writer;   int __shared;   signed char __rwelision;   unsigned char __pad1[7];   unsigned long int __pad2;   unsigned int __flags; } ;}-> N271
/usr/include/x86_64-linux-gnu/bits/thread-shared-types.h, lines 94-103:	N271 -{struct __pthread_cond_s {   __atomic_wide_counter __wseq;   __atomic_wide_counter __g1_start;   unsigned int __g_refs[2];   unsigned int __g_size[2];   unsigned int __g1_orig_size;   unsigned int __wrefs;   unsigned int __g_signals[2]; } ;}-> N272
/usr/include/x86_64-linux-gnu/bits/thread-shared-types.h, line 105:	N272 -{typedef unsigned int __tss_t;}-> N273
/usr/include/x86_64-linux-gnu/bits/thread-shared-types.h, line 106:	N273 -{typedef unsigned long int __thrd_t;}-> N274
/usr/include/x86_64-linux-gnu/bits/thread-shared-types.h, lines 108-111:	N274 -{struct __anon_type___once_flag {   int __data; } ;}-> N275
/usr/include/x86_64-linux-gnu/bits/thread-shared-types.h, lines 108-111:	N275 -{typedef struct __anon_type___once_flag __once_flag;}-> N276
/usr/include/x86_64-linux-gnu/bits/pthreadtypes.h, line 27:	N276 -{typedef unsigned long int pthread_t;}-> N277
/usr/include/x86_64-linux-gnu/bits/pthreadtypes.h, lines 32-36:	N277 -{union __anon_type_pthread_mutexattr_t {   char __size[4];   int __align; } ;}-> N278
/usr/include/x86_64-linux-gnu/bits/pthreadtypes.h, lines 32-36:	N278 -{typedef union __anon_type_pthread_mutexattr_t pthread_mutexattr_t;}-> N279
/usr/include/x86_64-linux-gnu/bits/pthreadtypes.h, lines 41-45:	N279 -{union __anon_type_pthread_condattr_t {   char __size[4];   int __align; } ;}-> N280
/usr/include/x86_64-linux-gnu/bits/pthreadtypes.h, lines 41-45:	N280 -{typedef union __anon_type_pthread_mutexattr_t pthread_condattr_t;}-> N281
/usr/include/x86_64-linux-gnu/bits/pthreadtypes.h, line 49:	N281 -{typedef unsigned int pthread_key_t;}-> N282
/usr/include/x86_64-linux-gnu/bits/pthreadtypes.h, line 53:	N282 -{typedef int pthread_once_t;}-> N283
/usr/include/x86_64-linux-gnu/bits/pthreadtypes.h, lines 56-60:	N283 -{union pthread_attr_t {   char __size[56];   long int __align; } ;}-> N284
/usr/include/x86_64-linux-gnu/bits/pthreadtypes.h, line 62:	N284 -{typedef union pthread_attr_t pthread_attr_t;}-> N285
/usr/include/x86_64-linux-gnu/bits/pthreadtypes.h, lines 67-72:	N285 -{union __anon_type_pthread_mutex_t {   struct __pthread_mutex_s __data;   char __size[40];   long int __align; } ;}-> N286
/usr/include/x86_64-linux-gnu/bits/pthreadtypes.h, lines 67-72:	N286 -{typedef union __anon_type_pthread_mutex_t pthread_mutex_t;}-> N287
/usr/include/x86_64-linux-gnu/bits/pthreadtypes.h, lines 75-80:	N287 -{union __anon_type_pthread_cond_t {   struct __pthread_cond_s __data;   char __size[48];   long long int __align; } ;}-> N288
/usr/include/x86_64-linux-gnu/bits/pthreadtypes.h, lines 75-80:	N288 -{typedef union __anon_type_pthread_cond_t pthread_cond_t;}-> N289
/usr/include/x86_64-linux-gnu/bits/pthreadtypes.h, lines 86-91:	N289 -{union __anon_type_pthread_rwlock_t {   struct __pthread_rwlock_arch_t __data;   char __size[56];   long int __align; } ;}-> N290
/usr/include/x86_64-linux-gnu/bits/pthreadtypes.h, lines 86-91:	N290 -{typedef union __anon_type_pthread_rwlock_t pthread_rwlock_t;}-> N291
/usr/include/x86_64-linux-gnu/bits/pthreadtypes.h, lines 93-97:	N291 -{union __anon_type_pthread_rwlockattr_t {   char __size[8];   long int __align; } ;}-> N292
/usr/include/x86_64-linux-gnu/bits/pthreadtypes.h, lines 93-97:	N292 -{typedef union __anon_type_pthread_rwlockattr_t pthread_rwlockattr_t;}-> N293
/usr/include/x86_64-linux-gnu/bits/pthreadtypes.h, line 103:	N293 -{typedef volatile int pthread_spinlock_t;}-> N294
/usr/include/x86_64-linux-gnu/bits/pthreadtypes.h, lines 108-112:	N294 -{union __anon_type_pthread_barrier_t {   char __size[32];   long int __align; } ;}-> N295
/usr/include/x86_64-linux-gnu/bits/pthreadtypes.h, lines 108-112:	N295 -{typedef union __anon_type_pthread_barrier_t pthread_barrier_t;}-> N296
/usr/include/x86_64-linux-gnu/bits/pthreadtypes.h, lines 114-118:	N296 -{union __anon_type_pthread_barrierattr_t {   char __size[4];   int __align; } ;}-> N297
/usr/include/x86_64-linux-gnu/bits/pthreadtypes.h, lines 114-118:	N297 -{typedef union __anon_type_pthread_mutexattr_t pthread_barrierattr_t;}-> N298
/usr/include/stdlib.h, line 402:	N298 -{long int random();}-> N299
/usr/include/stdlib.h, line 405:	N299 -{void srandom(unsigned int __seed);}-> N300
/usr/include/stdlib.h, lines 411-412:	N300 -{char *initstate(unsigned int __seed, char *__statebuf, size_t __statelen);}-> N301
/usr/include/stdlib.h, line 416:	N301 -{char *setstate(char *__statebuf);}-> N302
/usr/include/stdlib.h, lines 424-433:	N302 -{struct random_data {   int32_t *fptr;   int32_t *rptr;   int32_t *state;   int rand_type;   int rand_deg;   int rand_sep;   int32_t *end_ptr; } ;}-> N303
/usr/include/stdlib.h, lines 435-436:	N303 -{int random_r(struct random_data *__buf, int32_t *__result);}-> N304
/usr/include/stdlib.h, lines 438-439:	N304 -{int srandom_r(unsigned int __seed, struct random_data *__buf);}-> N305
/usr/include/stdlib.h, lines 441-444:	N305 -{int initstate_r(unsigned int __seed, char *__statebuf, size_t __statelen, struct random_data *__buf);}-> N306
/usr/include/stdlib.h, lines 446-448:	N306 -{int setstate_r(char *__statebuf, struct random_data *__buf);}-> N307
/usr/include/stdlib.h, line 454:	N307 -{int rand();}-> N308
/usr/include/stdlib.h, line 456:	N308 -{void srand(unsigned int __seed);}-> N309
/usr/include/stdlib.h, line 460:	N309 -{int rand_r(unsigned int *__seed);}-> N310
/usr/include/stdlib.h, line 468:	N310 -{double drand48();}-> N311
/usr/include/stdlib.h, line 469:	N311 -{double erand48(unsigned short int __xsubi[3]);}-> N312
/usr/include/stdlib.h, line 472:	N312 -{long int lrand48();}-> N313
/usr/include/stdlib.h, lines 473-474:	N313 -{long int nrand48(unsigned short int __xsubi[3]);}-> N314
/usr/include/stdlib.h, line 477:	N314 -{long int mrand48();}-> N315
/usr/include/stdlib.h, lines 478-479:	N315 -{long int jrand48(unsigned short int __xsubi[3]);}-> N316
/usr/include/stdlib.h, line 482:	N316 -{void srand48(long int __seedval);}-> N317
/usr/include/stdlib.h, lines 483-484:	N317 -{unsigned short int *seed48(unsigned short int __seed16v[3]);}-> N318
/usr/include/stdlib.h, line 485:	N318 -{void lcong48(unsigned short int __param[7]);}-> N319
/usr/include/stdlib.h, lines 491-499:	N319 -{struct drand48_data {   unsigned short int __x[3];   unsigned short int __old_x[3];   unsigned short int __c;   unsigned short int __init;   unsigned long long int __a; } ;}-> N320
/usr/include/stdlib.h, lines 502-503:	N320 -{int drand48_r(struct drand48_data *__buffer, double *__result);}-> N321
/usr/include/stdlib.h, lines 504-506:	N321 -{int erand48_r(unsigned short int __xsubi[3], struct drand48_data *__buffer, double *__result);}-> N322
/usr/include/stdlib.h, lines 509-511:	N322 -{int lrand48_r(struct drand48_data *__buffer, long int *__result);}-> N323
/usr/include/stdlib.h, lines 512-515:	N323 -{int nrand48_r(unsigned short int __xsubi[3], struct drand48_data *__buffer, long int *__result);}-> N324
/usr/include/stdlib.h, lines 518-520:	N324 -{int mrand48_r(struct drand48_data *__buffer, long int *__result);}-> N325
/usr/include/stdlib.h, lines 521-524:	N325 -{int jrand48_r(unsigned short int __xsubi[3], struct drand48_data *__buffer, long int *__result);}-> N326
/usr/include/stdlib.h, lines 527-528:	N326 -{int srand48_r(long int __seedval, struct drand48_data *__buffer);}-> N327
/usr/include/stdlib.h, lines 530-531:	N327 -{int seed48_r(unsigned short int __seed16v[3], struct drand48_data *__buffer);}-> N328
/usr/include/stdlib.h, lines 533-535:	N328 -{int lcong48_r(unsigned short int __param[7], struct drand48_data *__buffer);}-> N329
/usr/include/stdlib.h, lines 540-541:	N329 -{void *malloc(size_t __size);}-> N330
/usr/include/stdlib.h, lines 543-544:	N330 -{void *calloc(size_t __nmemb, size_t __size);}-> N331
/usr/include/stdlib.h, lines 551-552:	N331 -{void *realloc(void *__ptr, size_t __size);}-> N332
/usr/include/stdlib.h, line 555:	N332 -{void free(void *__ptr);}-> N333
/usr/include/stdlib.h, lines 563-566:	N333 -{void *reallocarray(void *__ptr, size_t __nmemb, size_t __size);}-> N334
/usr/include/alloca.h, line 32:	N334 -{void *alloca(size_t __size);}-> N335
/usr/include/stdlib.h, lines 580-581:	N335 -{void *valloc(size_t __size);}-> N336
/usr/include/stdlib.h, lines 586-587:	N336 -{int posix_memalign(void **__memptr, size_t __alignment, size_t __size);}-> N337
/usr/include/stdlib.h, lines 592-594:	N337 -{void *aligned_alloc(size_t __alignment, size_t __size);}-> N338
/usr/include/stdlib.h, line 598:	N338 -{void abort();}-> N339
/usr/include/stdlib.h, line 602:	N339 -{int atexit(void (*__func)());}-> N340
/usr/include/stdlib.h, line 610:	N340 -{int at_quick_exit(void (*__func)());}-> N341
/usr/include/stdlib.h, lines 617-618:	N341 -{int on_exit(void (*__func)(int __status, void *__arg), void *__arg);}-> N342
/usr/include/stdlib.h, line 624:	N342 -{void exit(int __status);}-> N343
/usr/include/stdlib.h, line 630:	N343 -{void quick_exit(int __status);}-> N344
/usr/include/stdlib.h, line 636:	N344 -{void _Exit(int __status);}-> N345
/usr/include/stdlib.h, line 641:	N345 -{char *getenv(const char *__name);}-> N346
/usr/include/stdlib.h, line 654:	N346 -{int putenv(char *__string);}-> N347
/usr/include/stdlib.h, lines 660-661:	N347 -{int setenv(const char *__name, const char *__value, int __replace);}-> N348
/usr/include/stdlib.h, line 664:	N348 -{int unsetenv(const char *__name);}-> N349
/usr/include/stdlib.h, line 671:	N349 -{int clearenv();}-> N350
/usr/include/stdlib.h, line 682:	N350 -{char *mktemp(char *__template);}-> N351
/usr/include/stdlib.h, line 695:	N351 -{int mkstemp(char *__template);}-> N352
/usr/include/stdlib.h, line 717:	N352 -{int mkstemps(char *__template, int __suffixlen);}-> N353
/usr/include/stdlib.h, line 738:	N353 -{char *mkdtemp(char *__template);}-> N354
/usr/include/stdlib.h, line 791:	N354 -{int system(const char *__command);}-> N355
/usr/include/stdlib.h, lines 808-809:	N355 -{char *realpath(const char *__name, char *__resolved);}-> N356
/usr/include/stdlib.h, line 816:	N356 -{typedef int (*__compar_fn_t)(const void *, const void *);}-> N357
/usr/include/stdlib.h, lines 828-830:	N357 -{void *bsearch(const void *__key, const void *__base, size_t __nmemb, size_t __size, __compar_fn_t __compar);}-> N358
/usr/include/stdlib.h, lines 838-839:	N358 -{void qsort(void *__base, size_t __nmemb, size_t __size, __compar_fn_t __compar);}-> N359
/usr/include/stdlib.h, line 848:	N359 -{int abs(int __x);}-> N360
/usr/include/stdlib.h, line 849:	N360 -{long int labs(long int __x);}-> N361
/usr/include/stdlib.h, lines 852-853:	N361 -{long long int llabs(long long int __x);}-> N362
/usr/include/stdlib.h, lines 860-861:	N362 -{div_t div(int __numer, int __denom);}-> N363
/usr/include/stdlib.h, lines 862-863:	N363 -{ldiv_t ldiv(long int __numer, long int __denom);}-> N364
/usr/include/stdlib.h, lines 866-868:	N364 -{lldiv_t lldiv(long long int __numer, long long int __denom);}-> N365
/usr/include/stdlib.h, lines 880-881:	N365 -{char *ecvt(double __value, int __ndigit, int *__decpt, int *__sign);}-> N366
/usr/include/stdlib.h, lines 886-887:	N366 -{char *fcvt(double __value, int __ndigit, int *__decpt, int *__sign);}-> N367
/usr/include/stdlib.h, lines 892-893:	N367 -{char *gcvt(double __value, int __ndigit, char *__buf);}-> N368
/usr/include/stdlib.h, lines 898-900:	N368 -{char *qecvt(long double __value, int __ndigit, int *__decpt, int *__sign);}-> N369
/usr/include/stdlib.h, lines 901-903:	N369 -{char *qfcvt(long double __value, int __ndigit, int *__decpt, int *__sign);}-> N370
/usr/include/stdlib.h, lines 904-905:	N370 -{char *qgcvt(long double __value, int __ndigit, char *__buf);}-> N371
/usr/include/stdlib.h, lines 910-912:	N371 -{int ecvt_r(double __value, int __ndigit, int *__decpt, int *__sign, char *__buf, size_t __len);}-> N372
/usr/include/stdlib.h, lines 913-915:	N372 -{int fcvt_r(double __value, int __ndigit, int *__decpt, int *__sign, char *__buf, size_t __len);}-> N373
/usr/include/stdlib.h, lines 917-920:	N373 -{int qecvt_r(long double __value, int __ndigit, int *__decpt, int *__sign, char *__buf, size_t __len);}-> N374
/usr/include/stdlib.h, lines 921-924:	N374 -{int qfcvt_r(long double __value, int __ndigit, int *__decpt, int *__sign, char *__buf, size_t __len);}-> N375
/usr/include/stdlib.h, line 930:	N375 -{int mblen(const char *__s, size_t __n);}-> N376
/usr/include/stdlib.h, lines 933-934:	N376 -{int mbtowc(wchar_t *__pwc, const char *__s, size_t __n);}-> N377
/usr/include/stdlib.h, line 937:	N377 -{int wctomb(char *__s, wchar_t __wchar);}-> N378
/usr/include/stdlib.h, lines 941-943:	N378 -{size_t mbstowcs(wchar_t *__pwcs, const char *__s, size_t __n);}-> N379
/usr/include/stdlib.h, lines 945-949:	N379 -{size_t wcstombs(char *__s, const wchar_t *__pwcs, size_t __n);}-> N380
/usr/include/stdlib.h, line 956:	N380 -{int rpmatch(const char *__response);}-> N381
/usr/include/stdlib.h, lines 967-970:	N381 -{int getsubopt(char **__optionp, char * const *__tokens, char **__valuep);}-> N382
/usr/include/stdlib.h, lines 1013-1014:	N382 -{int getloadavg(double __loadavg[], int __nelem);}-> N383
/usr/include/assert.h, lines 69-71:	N383 -{void __assert_fail(const char *__assertion, const char *__file, unsigned int __line, const char *__function);}-> N384
/usr/include/assert.h, lines 74-76:	N384 -{void __assert_perror_fail(int __errnum, const char *__file, unsigned int __line, const char *__function);}-> N385
/usr/include/assert.h, lines 81-82:	N385 -{void __assert(const char *__assertion, const char *__file, int __line);}-> N386
lines 5-9:	N386 -{struct TSLL {   struct TSLL *next;   struct TSLL *prev;   int data; } ;}-> N387
lines 5-9:	N387 -{typedef struct TSLL TSLL;}-> N388
lines 11-15:	N388 -{struct SLL {   struct TSLL *next;   struct TSLL *prev;   int data; } ;}-> N389
lines 11-15:	N389 -{typedef struct SLL SLL;}-> N390
lines 18-20:	N390 -{void assume(int cond);}-> N391
lines 22-80:	N391 -{int main();}-> N392
none:	N392 -{Function start dummy edge}-> N38
line 23:	N38 -{SLL *pSVar1;}-> N39
line 24:	N39 -{TSLL *pTVar2;}-> N40
line 25:	N40 -{TSLL *pTVar3;}-> N41
line 26:	N41 -{SLL *y;}-> N42
line 27:	N42 -{int local_28;}-> N43
	local_28 == 2;
line 28:	N43 -{int expr_tmp_var_29_int;}-> N44
	expr_tmp_var_29_int == 0;
line 29:	N44 -{SLL *x;}-> N45
line 31:	N45 -{x = malloc(12UL);}-> N46
	x == 8LL;
line 32:	N46 -{x->next = (TSLL *)0;}-> N47
	(x->next) == 0LL;
line 33:	N47 -{x->prev = (TSLL *)0;}-> N48
line 34:	N48 -{x->data = 0;}-> N49
line 35:	N49 -{SLL *current = x;}-> N50
	current == 8LL;
	(current->next) == 0LL;
line 36:	N50 -{while}-> N51
line 36:	N51 -{[!(expr_tmp_var_29_int != 0)]}-> N53
	expr_tmp_var_29_int == 0;
	expr_tmp_var_29_int == 0;
line 44:	N53 -{current = x;}-> N60
	current == 8LL;
	(current->next) == 0LL;
line 45:	N60 -{[!(local_28 == 0)]}-> N63
	local_28 == 2;
	local_28 == 2;
line 60:	N63 -{pSVar1 = malloc(12UL);}-> N79
	pSVar1 == 0LL;
line 61:	N79 -{pSVar1->data = 1;}-> N80
	(pSVar1->data) == 1;
line 62:	N80 -{pSVar1->next = (TSLL *)x;}-> N81
	(pSVar1->next) == 8LL;
	(pSVar1->next->next) == 0LL;
	(pSVar1->next->next->next) == 8LL;
	(pSVar1->next->next->data) == 1;
line 63:	N81 -{pSVar1->prev = (TSLL *)0;}-> N82
line 64:	N82 -{x = pSVar1;}-> N83
	x == 0LL;
	(x->next) == 8LL;
	(x->next->next) == 0LL;
	(x->next->next->data) == 1;
none:	N83 -{}-> N61
line 66:	N61 -{for}-> N84
lines 66-67:	N84 -{current = x;}-> N85
	current == 0LL;
	(current->next) == 8LL;
	(current->next->next) == 0LL;
	(current->next->next->data) == 1;
line 66:	N85 -{[!((current->data) != 1)]}-> N88
	(current->data) == 1;
	(current->data) == 1;
line 68:	N88 -{for}-> N89
lines 68-72:	N89 -{current = (SLL *)(current->next);}-> N90
	current == 8LL;
	(current->next) == 0LL;
	(current->next->next) == 8LL;
	(current->next->data) == 1;
line 68:	N90 -{[current != ((TSLL *)0)]}-> N92
	current == 8LL;
	(current->next) == 0LL;
	(current->next->next) == 8LL;
	(current->next->data) == 1;
	current == 8LL;
(current->next) == 0LL;
(current->next->next) == 8LL;
(current->next->data) == 1;
(TSLL *)0 == 0
line 69:	N92 -{[(current->data) != 1]}-> N95
line 70:	N95 -{int __CPAchecker_TMP_2;}-> N96
line 70:	N96 -{}-> N98
line 70:	N98 -{__CPAchecker_TMP_2 = 0;}-> N100
line 70:	N100 -{4UL;}-> N101
line 70:	N101 -{}-> N104
line 70:	N104 -{__assert_fail("0 && \"Assertion failed: current->data != 1\"", "/home/zyl/biVerify/CPA_DATA2/C/F/llmfix/realOutput/iterationTry/dll-simple-white-blue-1_process_dc_iter2.c", 70, "__PRETTY_FUNCTION__");}-> N394
